language Essence 1.3

letting blksize_delta be
        function(1 --> 10, 2 --> 10, 3 --> 10, 4 --> 10, 5 --> 10, 6 --> 10, 7 --> 10, 8 --> 10, 9 --> 10, 10 --> 10,
                 11 --> 10, 12 --> 10, 13 --> 10, 14 --> 10, 15 --> 10, 16 --> 10, 17 --> 10, 18 --> 10, 19 --> 10,
                 20 --> 10, 21 --> 10, 22 --> 10, 23 --> 10, 24 --> 10)
letting maxcars be
        function(1 --> 9, 2 --> 9, 3 --> 10, 4 --> 9, 5 --> 9, 6 --> 9, 7 --> 9, 8 --> 9, 9 --> 9, 10 --> 10, 11 --> 9,
                 12 --> 9, 13 --> 9, 14 --> 9, 15 --> 10, 16 --> 9, 17 --> 9, 18 --> 9, 19 --> 9, 20 --> 9, 21 --> 9,
                 22 --> 9, 23 --> 9, 24 --> 9)
letting n_cars be 225
letting n_classes be 25
letting n_options be 24
letting quantity be
        function(1 --> 9, 2 --> 9, 3 --> 9, 4 --> 9, 5 --> 9, 6 --> 9, 7 --> 9, 8 --> 9, 9 --> 9, 10 --> 9, 11 --> 9,
                 12 --> 9, 13 --> 9, 14 --> 9, 15 --> 9, 16 --> 9, 17 --> 9, 18 --> 9, 19 --> 9, 20 --> 9, 21 --> 9,
                 22 --> 9, 23 --> 9, 24 --> 9, 25 --> 9)
letting usage be
        relation((1, 9), (1, 14), (2, 3), (2, 24), (3, 5), (3, 22), (4, 6), (4, 17), (4, 18), (4, 19), (5, 3), (5, 11),
                 (5, 21), (5, 24), (6, 6), (6, 10), (6, 16), (6, 21), (7, 20), (8, 3), (8, 13), (8, 17), (8, 23),
                 (9, 4), (9, 14), (10, 1), (10, 2), (10, 15), (10, 16), (11, 15), (11, 20), (11, 23), (12, 24), (13, 5),
                 (13, 18), (13, 23), (14, 24), (15, 4), (15, 11), (15, 18), (15, 22), (16, 23), (17, 3), (18, 7),
                 (19, 23), (20, 24), (21, 3), (21, 4), (21, 8), (21, 9), (21, 22), (22, 23), (23, 5), (23, 14),
                 (23, 15), (23, 21), (23, 22), (24, 8), (24, 11), (25, 8), (25, 12), (25, 15), (25, 16), (25, 18))
$ Visualisation for usage
$  1  9
$  1 14
$  2  3
$  2 24
$  3  5
$  3 22
$  4  6
$  4 17
$  4 18
$  4 19
$  5  3
$  5 11
$  5 21
$  5 24
$  6  6
$  6 10
$  6 16
$  6 21
$  7 20
$  8  3
$  8 13
$  8 17
$  8 23
$  9  4
$  9 14
$ 10  1
$ 10  2
$ 10 15
$ 10 16
$ 11 15
$ 11 20
$ 11 23
$ 12 24
$ 13  5
$ 13 18
$ 13 23
$ 14 24
$ 15  4
$ 15 11
$ 15 18
$ 15 22
$ 16 23
$ 17  3
$ 18  7
$ 19 23
$ 20 24
$ 21  3
$ 21  4
$ 21  8
$ 21  9
$ 21 22
$ 22 23
$ 23  5
$ 23 14
$ 23 15
$ 23 21
$ 23 22
$ 24  8
$ 24 11
$ 25  8
$ 25 12
$ 25 15
$ 25 16
$ 25 18

